10
geo
C     0.0000002024   -0.0000000177    3.6435842274
H     1.0465365456   -0.0000000163    3.2735778045
H     0.0000001556   -0.0000000177    4.7536036284
H    -0.5232679446   -0.9063270641    3.2735777384
H    -0.5232679471    0.9063270273    3.2735777384
C     0.0000000000    0.0000000000   -0.0000000000
H    -1.0465363276    0.0000000000    0.3700064670
H     0.0000000000    0.0000000000   -1.1100194010
H     0.5232681638   -0.9063270457    0.3700064670
H     0.5232681638    0.9063270457    0.3700064670
